nbNodes = 12;
nbVehi = 10;
nbServi = 5;

e = 
 [|    0,  395,   37,  415,  421,  314,  408,  232,  192,  168,  461,    0,
 |    0,   53,  102,  170,  436,  318,  184,  289,   29,   65,  352,    0,
 |    0,  100,  107,  192,  389,  109,  396,  268,   65,  224,  185,    0,
 |    0,  306,  324,  140,  368,  339,  149,   53,  320,   90,  126,    0,
 |    0,  132,  377,   73,  387,  464,  389,  476,  434,  135,  371,    0,
 |];

l = 
 [| 480, 439,  68, 470, 467, 369, 461, 266, 242, 211, 503, 480,
 | 480,  96, 161, 211, 473, 372, 238, 332,  81, 109, 405, 480,
 | 480, 157, 148, 237, 427, 167, 441, 315,  99, 269, 243, 480,
 | 480, 337, 368, 186, 418, 380, 180, 109, 354, 128, 160, 480,
 | 480, 163, 420, 132, 429, 519, 438, 535, 472, 172, 408, 480,
 |];

a = 
 [|  1,  1,  0,  0,  1,
 |  1,  1,  0,  1,  0,
 |  1,  0,  1,  1,  1,
 |  1,  1,  0,  1,  1,
 |  0,  1,  1,  1,  1,
 |  1,  1,  0,  1,  1,
 |  1,  1,  0,  0,  1,
 |  0,  1,  1,  0,  1,
 |  0,  0,  1,  1,  0,
 |  1,  1,  1,  1,  1,
 |];

p = array3d(1..nbNodes,1..nbVehi,1..nbServi,
[  0,  0,  0,  0,  0,	  0,  0,  0,  0,  0,	  0,  0,  0,  0,  0,	  0,  0,  0,  0,  0,	  0,  0,  0,  0,  0,	  0,  0,  0,  0,  0,	  0,  0,  0,  0,  0,	  0,  0,  0,  0,  0,	  0,  0,  0,  0,  0,	  0,  0,  0,  0,  0,	
  9, 12, 20, 18, 19,	 11, 12, 24,  9, 22,	 10, 26, 11,  6, 29,	 13, 28, 17, 12, 16,	 23, 12, 21, 23,  7,	 29, 19, 15, 15, 11,	 28, 19, 18, 18, 10,	 10, 26, 19, 29,  7,	 11, 11,  5, 19, 15,	 29, 27, 13, 19, 12,	
 27, 14, 19, 20,  7,	 21, 19, 24,  6, 29,	  5,  6, 21, 19, 21,	 26, 24, 17, 15, 25,	 22, 23,  8, 22, 12,	 20, 24,  9, 29, 13,	 16, 28, 22,  5, 18,	 26, 23,  7, 20, 27,	  7, 21, 28, 25, 12,	 20, 21,  8,  9,  8,	
  5, 26, 26, 10, 19,	  8, 26, 13, 14, 27,	 21, 26, 25, 15, 28,	 15, 13, 24, 19, 29,	 21, 23, 22, 21, 18,	 29, 11,  9,  9, 16,	 12,  9, 14, 10, 14,	 28, 13, 12, 11, 25,	  9, 29, 21,  6, 16,	 21, 16, 25, 17,  6,	
 26,  8, 24, 18, 25,	 15, 19,  8, 19, 23,	 21, 29, 29,  6,  9,	 13,  6, 20, 21, 15,	 15, 27, 14,  8, 29,	 28, 26, 17, 23, 14,	 20, 19, 19, 17,  9,	 14, 27, 23, 18, 18,	 18,  9, 17, 17, 12,	 24, 27, 14, 16, 18,	
 24, 26, 16, 10,  6,	 17,  8, 29, 29, 28,	 13, 22, 19, 28,  9,	 23, 14,  6, 18, 29,	 19,  6, 11,  9, 20,	 18, 28, 18, 29, 14,	  8, 23, 12, 21,  6,	 15,  8,  9, 14, 10,	  8, 25, 27, 24, 25,	  6, 18, 11,  9,  8,	
 11, 25, 12, 17, 29,	 27,  7, 29, 15,  7,	 15, 21, 27, 24, 12,	 28,  9, 18, 10, 21,	 25, 15, 18, 22,  9,	 15, 25, 24, 21,  6,	 28, 27, 26, 10, 16,	 26,  9, 19, 27, 22,	 23, 13, 13, 22,  7,	 20, 23, 12, 10, 28,	
  5,  5, 15, 18, 24,	 19, 28, 21, 16, 21,	 22, 14, 19, 19, 21,	  7, 17, 25, 23, 14,	 17, 16, 22, 25, 11,	 27, 18, 29, 11, 25,	 27, 11, 26, 12, 26,	 22, 28, 26, 14, 14,	 17,  6, 25,  8, 22,	 18, 11, 11, 14, 29,	
 21, 28, 18, 15, 26,	 24, 14, 16, 23, 20,	 11, 22, 26,  9,  6,	 24, 27,  6, 20, 11,	 18, 10, 12, 13, 13,	  7, 29, 21, 13, 15,	 21,  6, 13, 11, 17,	  9,  5, 26, 20, 23,	 19, 29, 17, 17,  8,	 18, 12,  5, 21, 29,	
 13,  9, 11, 23, 20,	 20, 25, 19, 13,  8,	 29, 29, 10, 12, 10,	 24, 19, 12, 22, 11,	  7, 11, 10, 19, 24,	 16,  9,  6, 18, 26,	  7, 27,  5, 14, 20,	 20,  6, 15, 11, 14,	 20, 10, 16, 25, 20,	 21, 19,  9, 29, 12,	
 17,  8, 20, 23, 23,	 14, 11, 29, 17, 24,	 25, 20, 21, 28,  6,	 13, 18,  7, 25, 27,	 16, 16,  7, 27, 11,	 24, 21, 28,  5, 22,	 10, 18, 25, 25, 13,	 20, 12, 19, 20, 24,	 13, 15, 16,  7, 13,	 17, 15, 29, 21, 11,	
  0,  0,  0,  0,  0,	  0,  0,  0,  0,  0,	  0,  0,  0,  0,  0,	  0,  0,  0,  0,  0,	  0,  0,  0,  0,  0,	  0,  0,  0,  0,  0,	  0,  0,  0,  0,  0,	  0,  0,  0,  0,  0,	  0,  0,  0,  0,  0,	  0,  0,  0,  0,  0,	
]);

rs = 
[|true,true,true,true,true,
 |true,false,false,false,false,
 |false,false,true,false,false,
 |true,false,false,false,false,
 |false,false,false,false,true,
 |true,false,false,false,false,
 |true,false,false,false,false,
 |true,false,false,false,false,
 |false,false,false,true,false,
 |true,false,false,false,false,
 |false,false,false,false,true,
 |true,true,true,true,true,
 |];

d=[|0, 4, 15, 25, 28, 17, 4, 11, 29, 25, 26, 0, 
|4, 0, 19, 28, 28, 21, 7, 14, 29, 28, 24, 4, 
|15, 19, 0, 13, 26, 15, 12, 7, 37, 26, 32, 15, 
|25, 28, 13, 0, 21, 28, 21, 14, 50, 38, 31, 25, 
|28, 28, 26, 21, 0, 40, 25, 21, 57, 50, 13, 28, 
|17, 21, 15, 28, 40, 0, 17, 19, 24, 10, 42, 17, 
|4, 7, 12, 21, 25, 17, 0, 7, 32, 26, 24, 4, 
|11, 14, 7, 14, 21, 19, 7, 0, 38, 29, 25, 11, 
|29, 29, 37, 50, 57, 24, 32, 38, 0, 17, 53, 29, 
|25, 28, 26, 38, 50, 10, 26, 29, 17, 0, 51, 25, 
|26, 24, 32, 31, 13, 42, 24, 25, 53, 51, 0, 26, 
|0, 4, 15, 25, 28, 17, 4, 11, 29, 25, 26, 0, 
|];

%coord=[ (0,0), (-2,-4), (12,9), (25,6), (24,-15), (-1,17), (4,0), (11,2), (-25,15), (-10,23), (13,-23), (0,0), ];

